    pair_coeff 1 2 75 1.0
    pair_coeff  1  1      25 1.0
    pair_coeff  2  2      25 1.0
    pair_coeff 2 3 35 1.0
    pair_coeff 1 3 75 1.0
    pair_coeff  3  3      25 1.0
    comm_modify cutoff 5.0 vel yes

    bond_coeff     1   4.0   1.0
    bond_coeff     2   4.0   1.0
    bond_coeff     3   4.0   1.0
  
